BAYES
324
2 2 2 2 2 2 2 2 2 2 2 2 2 2 2 2 2 2 2 2 2 2 2 2 2 2 2 2 2 2 2 2 2 2 2 2 2 2 2 2 2 2 2 2 2 2 2 2 2 2 2 2 2 2 2 2 2 2 2 2 2 2 2 2 2 2 2 2 2 2 2 2 2 2 2 2 2 2 2 2 2 2 2 2 2 2 2 2 2 2 2 2 2 2 2 2 2 2 2 2 2 2 2 2 2 2 2 2 2 2 2 2 2 2 2 2 2 2 2 2 2 2 2 2 2 2 2 2 2 2 2 2 2 2 2 2 2 2 2 2 2 2 2 2 2 2 2 2 2 2 2 2 2 2 2 2 2 2 2 2 2 2 2 2 2 2 2 2 2 2 2 2 2 2 2 2 2 2 2 2 2 2 2 2 2 2 2 2 2 2 2 2 2 2 2 2 2 2 2 2 2 2 2 2 2 2 2 2 2 2 2 2 2 2 2 2 2 2 2 2 2 2 2 2 2 2 2 2 2 2 2 2 2 2 2 2 2 2 2 2 2 2 2 2 2 2 2 2 2 2 2 2 2 2 2 2 2 2 2 2 2 2 2 2 2 2 2 2 2 2 2 2 2 2 2 2 2 2 2 2 2 2 2 2 2 2 2 2 2 2 2 2 2 2 2 2 2 2 2 2 2 2 2 2 2 2 2 2 2 2 2 2 2 2 2 2 2 2 2 2 2 2 2 2
324
1 0
2 0 1
2 1 2
2 2 3
2 3 4
2 4 5
2 5 6
2 6 7
2 7 8
2 8 9
2 9 10
2 10 11
2 11 12
2 12 13
2 13 14
2 14 15
2 15 16
2 16 17
2 0 18
3 1 18 19
3 2 19 20
3 3 20 21
3 4 21 22
3 5 22 23
3 6 23 24
3 7 24 25
3 8 25 26
3 9 26 27
3 10 27 28
3 11 28 29
3 12 29 30
3 13 30 31
3 14 31 32
3 15 32 33
3 16 33 34
3 17 34 35
2 18 36
3 19 36 37
3 20 37 38
3 21 38 39
3 22 39 40
3 23 40 41
3 24 41 42
3 25 42 43
3 26 43 44
3 27 44 45
3 28 45 46
3 29 46 47
3 30 47 48
3 31 48 49
3 32 49 50
3 33 50 51
3 34 51 52
3 35 52 53
2 36 54
3 37 54 55
3 38 55 56
3 39 56 57
3 40 57 58
3 41 58 59
3 42 59 60
3 43 60 61
3 44 61 62
3 45 62 63
3 46 63 64
3 47 64 65
3 48 65 66
3 49 66 67
3 50 67 68
3 51 68 69
3 52 69 70
3 53 70 71
2 54 72
3 55 72 73
3 56 73 74
3 57 74 75
3 58 75 76
3 59 76 77
3 60 77 78
3 61 78 79
3 62 79 80
3 63 80 81
3 64 81 82
3 65 82 83
3 66 83 84
3 67 84 85
3 68 85 86
3 69 86 87
3 70 87 88
3 71 88 89
2 72 90
3 73 90 91
3 74 91 92
3 75 92 93
3 76 93 94
3 77 94 95
3 78 95 96
3 79 96 97
3 80 97 98
3 81 98 99
3 82 99 100
3 83 100 101
3 84 101 102
3 85 102 103
3 86 103 104
3 87 104 105
3 88 105 106
3 89 106 107
2 90 108
3 91 108 109
3 92 109 110
3 93 110 111
3 94 111 112
3 95 112 113
3 96 113 114
3 97 114 115
3 98 115 116
3 99 116 117
3 100 117 118
3 101 118 119
3 102 119 120
3 103 120 121
3 104 121 122
3 105 122 123
3 106 123 124
3 107 124 125
2 108 126
3 109 126 127
3 110 127 128
3 111 128 129
3 112 129 130
3 113 130 131
3 114 131 132
3 115 132 133
3 116 133 134
3 117 134 135
3 118 135 136
3 119 136 137
3 120 137 138
3 121 138 139
3 122 139 140
3 123 140 141
3 124 141 142
3 125 142 143
2 126 144
3 127 144 145
3 128 145 146
3 129 146 147
3 130 147 148
3 131 148 149
3 132 149 150
3 133 150 151
3 134 151 152
3 135 152 153
3 136 153 154
3 137 154 155
3 138 155 156
3 139 156 157
3 140 157 158
3 141 158 159
3 142 159 160
3 143 160 161
2 144 162
3 145 162 163
3 146 163 164
3 147 164 165
3 148 165 166
3 149 166 167
3 150 167 168
3 151 168 169
3 152 169 170
3 153 170 171
3 154 171 172
3 155 172 173
3 156 173 174
3 157 174 175
3 158 175 176
3 159 176 177
3 160 177 178
3 161 178 179
2 162 180
3 163 180 181
3 164 181 182
3 165 182 183
3 166 183 184
3 167 184 185
3 168 185 186
3 169 186 187
3 170 187 188
3 171 188 189
3 172 189 190
3 173 190 191
3 174 191 192
3 175 192 193
3 176 193 194
3 177 194 195
3 178 195 196
3 179 196 197
2 180 198
3 181 198 199
3 182 199 200
3 183 200 201
3 184 201 202
3 185 202 203
3 186 203 204
3 187 204 205
3 188 205 206
3 189 206 207
3 190 207 208
3 191 208 209
3 192 209 210
3 193 210 211
3 194 211 212
3 195 212 213
3 196 213 214
3 197 214 215
2 198 216
3 199 216 217
3 200 217 218
3 201 218 219
3 202 219 220
3 203 220 221
3 204 221 222
3 205 222 223
3 206 223 224
3 207 224 225
3 208 225 226
3 209 226 227
3 210 227 228
3 211 228 229
3 212 229 230
3 213 230 231
3 214 231 232
3 215 232 233
2 216 234
3 217 234 235
3 218 235 236
3 219 236 237
3 220 237 238
3 221 238 239
3 222 239 240
3 223 240 241
3 224 241 242
3 225 242 243
3 226 243 244
3 227 244 245
3 228 245 246
3 229 246 247
3 230 247 248
3 231 248 249
3 232 249 250
3 233 250 251
2 234 252
3 235 252 253
3 236 253 254
3 237 254 255
3 238 255 256
3 239 256 257
3 240 257 258
3 241 258 259
3 242 259 260
3 243 260 261
3 244 261 262
3 245 262 263
3 246 263 264
3 247 264 265
3 248 265 266
3 249 266 267
3 250 267 268
3 251 268 269
2 252 270
3 253 270 271
3 254 271 272
3 255 272 273
3 256 273 274
3 257 274 275
3 258 275 276
3 259 276 277
3 260 277 278
3 261 278 279
3 262 279 280
3 263 280 281
3 264 281 282
3 265 282 283
3 266 283 284
3 267 284 285
3 268 285 286
3 269 286 287
2 270 288
3 271 288 289
3 272 289 290
3 273 290 291
3 274 291 292
3 275 292 293
3 276 293 294
3 277 294 295
3 278 295 296
3 279 296 297
3 280 297 298
3 281 298 299
3 282 299 300
3 283 300 301
3 284 301 302
3 285 302 303
3 286 303 304
3 287 304 305
2 288 306
3 289 306 307
3 290 307 308
3 291 308 309
3 292 309 310
3 293 310 311
3 294 311 312
3 295 312 313
3 296 313 314
3 297 314 315
3 298 315 316
3 299 316 317
3 300 317 318
3 301 318 319
3 302 319 320
3 303 320 321
3 304 321 322
3 305 322 323

2
0.449937 0.550063
4
0.898273 0.101727 0.416927 0.583073
4
1.0 0.0 0.0 1.0
4
0.845433 0.154567 0.281218 0.718782
4
1.0 0.0 0.0 1.0
4
0.0 1.0 1.0 0.0
4
0.348351 0.651649 0.517116 0.482884
4
1.0 0.0 0.0 1.0
4
1.0 0.0 0.0 1.0
4
0.760107 0.239893 0.30805 0.69195
4
1.0 0.0 0.0 1.0
4
0.0 1.0 1.0 0.0
4
0.758547 0.241453 0.973148 0.0268515
4
0.208485 0.791515 0.509435 0.490565
4
0.625412 0.374588 0.897806 0.102194
4
0.0 1.0 1.0 0.0
4
0.453182 0.546818 0.884036 0.115964
4
0.688943 0.311057 0.7247 0.2753
4
1.0 0.0 0.0 1.0
8
0.0 1.0 0.0 1.0 1.0 0.0 1.0 0.0
8
0.499041 0.500959 0.435385 0.564615 0.761002 0.238998 0.575524 0.424476
8
0.516137 0.483863 0.448808 0.551192 0.568511 0.431489 0.489286 0.510714
8
0.0 1.0 0.0 1.0 1.0 0.0 0.0 1.0
8
0.415609 0.584391 0.917345 0.082655 0.639766 0.360234 0.868791 0.131209
8
0.261979 0.738021 0.557734 0.442266 0.526081 0.473919 0.41134 0.58866
8
0.767898 0.232102 0.781422 0.218578 0.410177 0.589823 0.506832 0.493168
8
0.938149 0.061851 0.00587313 0.994127 0.344141 0.655859 0.699151 0.300849
8
0.154104 0.845896 0.215288 0.784712 0.0302048 0.969795 0.722615 0.277385
8
0.427295 0.572705 0.49961 0.50039 0.703295 0.296705 0.670939 0.329061
8
0.599821 0.400179 0.0865481 0.913452 0.819362 0.180638 0.239587 0.760413
8
0.620743 0.379257 0.501566 0.498434 0.513072 0.486928 0.146824 0.853176
8
0.1081 0.8919 0.914722 0.0852781 0.694329 0.305671 0.518278 0.481722
8
1.0 0.0 1.0 0.0 1.0 0.0 0.0 1.0
8
0.0 1.0 0.0 1.0 0.0 1.0 1.0 0.0
8
0.0754407 0.924559 0.466323 0.533677 0.323556 0.676444 0.778735 0.221265
8
0.0 1.0 1.0 0.0 0.0 1.0 1.0 0.0
4
0.17915 0.82085 0.665678 0.334322
8
1.0 0.0 1.0 0.0 0.0 1.0 1.0 0.0
8
0.726946 0.273054 0.3186 0.6814 0.148778 0.851222 0.330031 0.669969
8
0.576204 0.423796 0.277258 0.722742 0.930605 0.0693948 0.585028 0.414972
8
0.0 1.0 0.0 1.0 1.0 0.0 0.0 1.0
8
1.0 0.0 1.0 0.0 1.0 0.0 0.0 1.0
8
0.451454 0.548546 0.796599 0.203401 0.152348 0.847652 0.630604 0.369396
8
1.0 0.0 1.0 0.0 1.0 0.0 0.0 1.0
8
0.0 1.0 1.0 0.0 0.0 1.0 0.0 1.0
8
0.0 1.0 0.0 1.0 0.0 1.0 1.0 0.0
8
1.0 0.0 0.0 1.0 1.0 0.0 1.0 0.0
8
1.0 0.0 0.0 1.0 1.0 0.0 1.0 0.0
8
0.705546 0.294454 0.294388 0.705612 0.667965 0.332035 0.33615 0.66385
8
0.940024 0.0599763 0.658975 0.341025 0.0314424 0.968558 0.244699 0.755301
8
0.0334446 0.966555 0.276321 0.723679 0.223872 0.776128 0.184224 0.815776
8
0.440648 0.559352 0.911208 0.0887918 0.276885 0.723115 0.588029 0.411971
8
0.0 1.0 0.0 1.0 0.0 1.0 1.0 0.0
8
0.185739 0.814261 0.260545 0.739455 0.844059 0.155941 0.439831 0.560169
4
0.359676 0.640324 0.145377 0.854623
8
1.0 0.0 1.0 0.0 1.0 0.0 0.0 1.0
8
1.0 0.0 1.0 0.0 0.0 1.0 0.0 1.0
8
1.0 0.0 1.0 0.0 0.0 1.0 0.0 1.0
8
0.403544 0.596456 0.175175 0.824825 0.192926 0.807074 0.697929 0.302071
8
1.0 0.0 0.0 1.0 1.0 0.0 1.0 0.0
8
1.0 0.0 1.0 0.0 0.0 1.0 0.0 1.0
8
0.0 1.0 1.0 0.0 0.0 1.0 1.0 0.0
8
1.0 0.0 0.0 1.0 0.0 1.0 1.0 0.0
8
0.974793 0.0252065 0.814314 0.185686 0.866937 0.133063 0.101453 0.898547
8
1.0 0.0 0.0 1.0 0.0 1.0 0.0 1.0
8
0.0 1.0 1.0 0.0 1.0 0.0 1.0 0.0
8
0.888167 0.111833 0.782157 0.217843 0.897524 0.102476 0.119396 0.880604
8
1.0 0.0 1.0 0.0 0.0 1.0 1.0 0.0
8
0.0 1.0 0.0 1.0 1.0 0.0 0.0 1.0
8
1.0 0.0 0.0 1.0 0.0 1.0 1.0 0.0
8
1.0 0.0 0.0 1.0 0.0 1.0 1.0 0.0
8
0.910696 0.089304 0.619479 0.380521 0.354221 0.645779 0.32597 0.67403
4
0.0 1.0 1.0 0.0
8
1.0 0.0 0.0 1.0 1.0 0.0 0.0 1.0
8
1.0 0.0 0.0 1.0 0.0 1.0 1.0 0.0
8
0.0 1.0 0.0 1.0 1.0 0.0 0.0 1.0
8
0.56057 0.43943 0.0791828 0.920817 0.00992306 0.990077 0.763344 0.236656
8
1.0 0.0 1.0 0.0 1.0 0.0 0.0 1.0
8
0.0 1.0 1.0 0.0 1.0 0.0 0.0 1.0
8
0.921918 0.0780819 0.531508 0.468492 0.724891 0.275109 0.255451 0.744549
8
0.91706 0.08294 0.99233 0.00767019 0.549436 0.450564 0.734603 0.265397
8
0.0 1.0 1.0 0.0 0.0 1.0 1.0 0.0
8
0.0 1.0 0.0 1.0 0.0 1.0 1.0 0.0
8
0.561719 0.438281 0.756714 0.243286 0.136436 0.863564 0.725843 0.274157
8
0.518246 0.481754 0.509447 0.490553 0.961389 0.038611 0.226027 0.773973
8
0.514797 0.485203 0.147945 0.852055 0.307433 0.692567 0.239688 0.760312
8
1.0 0.0 1.0 0.0 0.0 1.0 1.0 0.0
8
0.621617 0.378383 0.596161 0.403839 0.814062 0.185938 0.511919 0.488081
8
0.963261 0.0367392 0.30592 0.69408 0.839543 0.160457 0.191643 0.808357
8
1.0 0.0 1.0 0.0 1.0 0.0 0.0 1.0
4
1.0 0.0 0.0 1.0
8
0.0 1.0 1.0 0.0 1.0 0.0 0.0 1.0
8
0.0 1.0 0.0 1.0 0.0 1.0 1.0 0.0
8
0.0 1.0 0.0 1.0 1.0 0.0 0.0 1.0
8
0.126532 0.873468 0.466177 0.533823 0.484308 0.515692 0.0897924 0.910208
8
0.323851 0.676149 0.281435 0.718565 0.88194 0.11806 0.828715 0.171285
8
0.0 1.0 1.0 0.0 0.0 1.0 0.0 1.0
8
0.502652 0.497348 0.806881 0.193119 0.0151326 0.984867 0.267229 0.732771
8
0.548651 0.451349 0.339239 0.660761 0.0959361 0.904064 0.485565 0.514435
8
0.517055 0.482945 0.818205 0.181795 0.526396 0.473604 0.829525 0.170475
8
0.0731377 0.926862 0.956057 0.0439433 0.238639 0.761361 0.557446 0.442554
8
0.0 1.0 0.0 1.0 1.0 0.0 0.0 1.0
8
0.36208 0.63792 0.641172 0.358828 0.180026 0.819974 0.876081 0.123919
8
0.809586 0.190414 0.378734 0.621266 0.745048 0.254952 0.824718 0.175282
8
0.576612 0.423388 0.373369 0.626631 0.985201 0.0147987 0.672549 0.327451
8
0.561017 0.438983 0.189604 0.810396 0.677138 0.322862 0.0874135 0.912586
8
0.0 1.0 0.0 1.0 1.0 0.0 0.0 1.0
8
0.0 1.0 1.0 0.0 0.0 1.0 0.0 1.0
4
1.0 0.0 0.0 1.0
8
1.0 0.0 0.0 1.0 1.0 0.0 0.0 1.0
8
0.916036 0.0839638 0.123635 0.876365 0.611176 0.388824 0.492649 0.507351
8
0.0 1.0 1.0 0.0 0.0 1.0 0.0 1.0
8
0.0 1.0 0.0 1.0 0.0 1.0 1.0 0.0
8
1.0 0.0 1.0 0.0 0.0 1.0 0.0 1.0
8
0.72265 0.27735 0.718469 0.281531 0.46154 0.53846 0.0319559 0.968044
8
1.0 0.0 1.0 0.0 0.0 1.0 0.0 1.0
8
0.980562 0.0194381 0.781387 0.218613 0.94384 0.0561601 0.591738 0.408262
8
1.0 0.0 0.0 1.0 1.0 0.0 1.0 0.0
8
1.0 0.0 0.0 1.0 0.0 1.0 1.0 0.0
8
0.0 1.0 0.0 1.0 0.0 1.0 1.0 0.0
8
0.0 1.0 0.0 1.0 1.0 0.0 0.0 1.0
8
0.0 1.0 1.0 0.0 0.0 1.0 1.0 0.0
8
0.0 1.0 1.0 0.0 0.0 1.0 1.0 0.0
8
0.0 1.0 1.0 0.0 0.0 1.0 1.0 0.0
8
1.0 0.0 1.0 0.0 1.0 0.0 0.0 1.0
8
0.741837 0.258163 0.348323 0.651677 0.0224384 0.977562 0.860872 0.139128
4
0.0 1.0 1.0 0.0
8
0.841249 0.158751 0.190656 0.809344 0.576198 0.423802 0.875814 0.124186
8
0.971127 0.0288734 0.925727 0.0742727 0.0744881 0.925512 0.186259 0.813741
8
0.230467 0.769533 0.345232 0.654768 0.578416 0.421584 0.660481 0.339519
8
0.388746 0.611254 0.529729 0.470271 0.341648 0.658352 0.544586 0.455414
8
1.0 0.0 0.0 1.0 0.0 1.0 1.0 0.0
8
1.0 0.0 0.0 1.0 1.0 0.0 1.0 0.0
8
0.596012 0.403988 0.449378 0.550622 0.695965 0.304035 0.17221 0.82779
8
1.0 0.0 0.0 1.0 1.0 0.0 0.0 1.0
8
1.0 0.0 0.0 1.0 0.0 1.0 1.0 0.0
8
0.0 1.0 0.0 1.0 0.0 1.0 1.0 0.0
8
0.0840355 0.915964 0.529629 0.470371 0.0096137 0.990386 0.10829 0.89171
8
0.0421958 0.957804 0.480867 0.519133 0.766256 0.233744 0.93565 0.06435
8
0.0 1.0 1.0 0.0 1.0 0.0 1.0 0.0
8
0.863565 0.136435 0.363391 0.636609 0.847208 0.152792 0.114485 0.885515
8
0.176804 0.823196 0.321606 0.678394 0.534557 0.465443 0.851632 0.148368
8
1.0 0.0 1.0 0.0 1.0 0.0 0.0 1.0
8
1.0 0.0 0.0 1.0 1.0 0.0 0.0 1.0
4
0.599387 0.400613 0.0521057 0.947894
8
1.0 0.0 1.0 0.0 0.0 1.0 1.0 0.0
8
0.0874417 0.912558 0.604739 0.395261 0.223289 0.776711 0.951007 0.0489928
8
0.0704964 0.929504 0.0654917 0.934508 0.801871 0.198129 0.2473 0.7527
8
1.0 0.0 0.0 1.0 0.0 1.0 0.0 1.0
8
0.775669 0.224331 0.0191627 0.980837 0.00347593 0.996524 0.775965 0.224035
8
0.96614 0.0338602 0.785875 0.214125 0.869284 0.130716 0.565527 0.434473
8
0.329356 0.670644 0.93117 0.0688296 0.825736 0.174264 0.878424 0.121576
8
0.345154 0.654846 0.965866 0.0341341 0.173118 0.826882 0.568442 0.431558
8
0.141248 0.858752 0.638939 0.361061 0.982365 0.0176352 0.943119 0.0568807
8
0.369463 0.630537 0.279547 0.720453 0.985171 0.014829 0.863705 0.136295
8
0.555613 0.444387 0.639374 0.360626 0.530993 0.469007 0.559088 0.440912
8
1.0 0.0 1.0 0.0 0.0 1.0 0.0 1.0
8
1.0 0.0 0.0 1.0 1.0 0.0 1.0 0.0
8
1.0 0.0 1.0 0.0 1.0 0.0 0.0 1.0
8
0.0 1.0 0.0 1.0 1.0 0.0 1.0 0.0
8
1.0 0.0 0.0 1.0 1.0 0.0 0.0 1.0
8
0.844488 0.155512 0.235779 0.764221 0.17016 0.82984 0.403576 0.596424
4
0.591231 0.408769 0.928805 0.0711955
8
0.881586 0.118414 0.0195599 0.98044 0.891527 0.108473 0.501297 0.498703
8
0.0 1.0 0.0 1.0 1.0 0.0 1.0 0.0
8
0.0 1.0 0.0 1.0 0.0 1.0 1.0 0.0
8
1.0 0.0 0.0 1.0 1.0 0.0 0.0 1.0
8
0.536653 0.463347 0.91418 0.0858198 0.599602 0.400398 0.772432 0.227568
8
1.0 0.0 0.0 1.0 0.0 1.0 0.0 1.0
8
0.951543 0.0484574 0.167409 0.832591 0.0584539 0.941546 0.993028 0.00697165
8
0.0578855 0.942115 0.624819 0.375181 0.890409 0.109591 0.521318 0.478682
8
1.0 0.0 1.0 0.0 0.0 1.0 0.0 1.0
8
0.467592 0.532408 0.264251 0.735749 0.513416 0.486584 0.742604 0.257396
8
0.0 1.0 0.0 1.0 0.0 1.0 1.0 0.0
8
0.622146 0.377854 0.246051 0.753949 0.416696 0.583304 0.554128 0.445872
8
0.973853 0.0261466 0.505671 0.494329 0.689343 0.310657 0.0323073 0.967693
8
1.0 0.0 0.0 1.0 1.0 0.0 1.0 0.0
8
0.0 1.0 1.0 0.0 0.0 1.0 0.0 1.0
8
0.201361 0.798639 0.0637215 0.936279 0.673663 0.326337 0.220727 0.779273
8
1.0 0.0 0.0 1.0 0.0 1.0 1.0 0.0
4
1.0 0.0 0.0 1.0
8
1.0 0.0 0.0 1.0 0.0 1.0 0.0 1.0
8
0.0 1.0 1.0 0.0 1.0 0.0 1.0 0.0
8
0.0 1.0 0.0 1.0 1.0 0.0 1.0 0.0
8
1.0 0.0 1.0 0.0 0.0 1.0 1.0 0.0
8
0.787295 0.212705 0.355597 0.644403 0.00874274 0.991257 0.901085 0.0989147
8
0.848437 0.151563 0.837377 0.162623 0.757617 0.242383 0.310277 0.689723
8
0.0 1.0 1.0 0.0 0.0 1.0 0.0 1.0
8
0.117616 0.882384 0.202437 0.797563 0.868222 0.131778 0.124446 0.875554
8
0.0120782 0.987922 0.634894 0.365106 0.983192 0.0168077 0.299485 0.700515
8
1.0 0.0 0.0 1.0 0.0 1.0 1.0 0.0
8
0.65911 0.34089 0.667329 0.332671 0.0878896 0.91211 0.667852 0.332148
8
0.773934 0.226066 0.516289 0.483711 0.405791 0.594209 0.531551 0.468449
8
0.425511 0.574489 0.777436 0.222564 0.152811 0.847189 0.149508 0.850492
8
0.0 1.0 0.0 1.0 1.0 0.0 1.0 0.0
8
1.0 0.0 0.0 1.0 1.0 0.0 1.0 0.0
8
0.0 1.0 0.0 1.0 1.0 0.0 1.0 0.0
8
0.0 1.0 1.0 0.0 0.0 1.0 1.0 0.0
4
0.730371 0.269629 0.824955 0.175045
8
0.0 1.0 0.0 1.0 1.0 0.0 1.0 0.0
8
1.0 0.0 0.0 1.0 0.0 1.0 0.0 1.0
8
1.0 0.0 0.0 1.0 0.0 1.0 1.0 0.0
8
1.0 0.0 0.0 1.0 0.0 1.0 1.0 0.0
8
1.0 0.0 0.0 1.0 0.0 1.0 0.0 1.0
8
0.180699 0.819301 0.239298 0.760702 0.241888 0.758112 0.00565441 0.994346
8
0.0 1.0 1.0 0.0 0.0 1.0 1.0 0.0
8
0.0 1.0 0.0 1.0 1.0 0.0 0.0 1.0
8
1.0 0.0 0.0 1.0 0.0 1.0 1.0 0.0
8
0.0 1.0 1.0 0.0 0.0 1.0 1.0 0.0
8
0.991892 0.0081078 0.649799 0.350201 0.987692 0.0123084 0.722232 0.277768
8
0.0 1.0 0.0 1.0 1.0 0.0 1.0 0.0
8
0.0 1.0 0.0 1.0 1.0 0.0 1.0 0.0
8
0.0 1.0 1.0 0.0 1.0 0.0 0.0 1.0
8
1.0 0.0 0.0 1.0 0.0 1.0 0.0 1.0
8
0.0 1.0 0.0 1.0 0.0 1.0 1.0 0.0
8
0.490141 0.509859 0.17086 0.82914 0.883182 0.116818 0.212373 0.787627
4
0.0 1.0 1.0 0.0
8
0.0 1.0 1.0 0.0 0.0 1.0 0.0 1.0
8
0.74241 0.25759 0.237614 0.762386 0.794132 0.205868 0.205825 0.794175
8
0.94193 0.0580697 0.795539 0.204461 0.610586 0.389414 0.512485 0.487515
8
1.0 0.0 0.0 1.0 1.0 0.0 0.0 1.0
8
0.769271 0.230729 0.504598 0.495402 0.0298881 0.970112 0.664761 0.335239
8
0.200748 0.799252 0.547943 0.452057 0.207112 0.792888 0.532924 0.467076
8
0.381014 0.618986 0.268305 0.731695 0.825134 0.174866 0.780992 0.219008
8
0.586958 0.413042 0.523402 0.476598 0.0225538 0.977446 0.38109 0.61891
8
0.632049 0.367951 0.32302 0.67698 0.524765 0.475235 0.242635 0.757365
8
0.910551 0.0894489 0.853393 0.146607 0.123509 0.876491 0.642345 0.357655
8
0.632336 0.367664 0.411616 0.588384 0.364339 0.635661 0.662224 0.337776
8
1.0 0.0 1.0 0.0 0.0 1.0 0.0 1.0
8
0.0 1.0 0.0 1.0 0.0 1.0 1.0 0.0
8
0.449142 0.550858 0.635929 0.364071 0.251598 0.748402 0.471696 0.528304
8
0.0 1.0 1.0 0.0 0.0 1.0 1.0 0.0
8
1.0 0.0 0.0 1.0 0.0 1.0 0.0 1.0
8
1.0 0.0 1.0 0.0 0.0 1.0 0.0 1.0
4
0.546479 0.453521 0.782932 0.217068
8
0.0 1.0 1.0 0.0 0.0 1.0 0.0 1.0
8
1.0 0.0 0.0 1.0 1.0 0.0 1.0 0.0
8
0.0 1.0 0.0 1.0 0.0 1.0 1.0 0.0
8
0.436593 0.563407 0.762536 0.237464 0.887647 0.112353 0.612138 0.387862
8
1.0 0.0 1.0 0.0 1.0 0.0 0.0 1.0
8
0.707267 0.292733 0.570788 0.429212 0.436196 0.563804 0.253747 0.746253
8
0.0 1.0 1.0 0.0 0.0 1.0 0.0 1.0
8
0.261952 0.738048 0.26279 0.73721 0.023689 0.976311 0.227779 0.772221
8
1.0 0.0 0.0 1.0 0.0 1.0 0.0 1.0
8
1.0 0.0 0.0 1.0 0.0 1.0 0.0 1.0
8
0.0 1.0 1.0 0.0 1.0 0.0 0.0 1.0
8
0.0 1.0 1.0 0.0 0.0 1.0 0.0 1.0
8
0.0 1.0 1.0 0.0 1.0 0.0 0.0 1.0
8
0.955086 0.0449136 0.577583 0.422417 0.202667 0.797333 0.978775 0.0212247
8
0.544992 0.455008 0.278585 0.721415 0.470663 0.529337 0.983871 0.0161289
8
0.677232 0.322768 0.859344 0.140656 0.15463 0.84537 0.771448 0.228552
8
0.0 1.0 1.0 0.0 0.0 1.0 1.0 0.0
4
1.0 0.0 0.0 1.0
8
0.181011 0.818989 0.664721 0.335279 0.52628 0.47372 0.434089 0.565911
8
1.0 0.0 0.0 1.0 0.0 1.0 1.0 0.0
8
0.0 1.0 0.0 1.0 1.0 0.0 0.0 1.0
8
1.0 0.0 1.0 0.0 0.0 1.0 1.0 0.0
8
1.0 0.0 0.0 1.0 1.0 0.0 0.0 1.0
8
0.0 1.0 0.0 1.0 1.0 0.0 1.0 0.0
8
0.0 1.0 0.0 1.0 1.0 0.0 0.0 1.0
8
0.15738 0.84262 0.636141 0.363859 0.0928496 0.90715 0.708095 0.291905
8
1.0 0.0 1.0 0.0 0.0 1.0 1.0 0.0
8
0.347018 0.652982 0.364269 0.635731 0.174378 0.825622 0.665398 0.334602
8
0.255934 0.744066 0.843122 0.156878 0.394486 0.605514 0.108938 0.891062
8
0.0 1.0 0.0 1.0 0.0 1.0 1.0 0.0
8
0.0 1.0 1.0 0.0 1.0 0.0 0.0 1.0
8
0.97436 0.0256403 0.975485 0.0245148 0.360457 0.639543 0.0672093 0.932791
8
0.583448 0.416552 0.505154 0.494846 0.519974 0.480026 0.595957 0.404043
8
0.0 1.0 0.0 1.0 0.0 1.0 1.0 0.0
8
0.433299 0.566701 0.72034 0.27966 0.451496 0.548504 0.827785 0.172215
4
0.819297 0.180703 0.467293 0.532707
8
0.457532 0.542468 0.739555 0.260445 0.747069 0.252931 0.353341 0.646659
8
1.0 0.0 0.0 1.0 1.0 0.0 0.0 1.0
8
0.0 1.0 1.0 0.0 1.0 0.0 0.0 1.0
8
0.350487 0.649513 0.738882 0.261118 0.832278 0.167722 0.640515 0.359485
8
0.463514 0.536486 0.104921 0.895079 0.290232 0.709768 0.896813 0.103187
8
0.741728 0.258272 0.724598 0.275402 0.654539 0.345461 0.561025 0.438975
8
0.0 1.0 0.0 1.0 1.0 0.0 0.0 1.0
8
1.0 0.0 1.0 0.0 0.0 1.0 1.0 0.0
8
0.164647 0.835353 0.217603 0.782397 0.520789 0.479211 0.307573 0.692427
8
0.871276 0.128724 0.0464551 0.953545 0.615191 0.384809 0.511791 0.488209
8
0.0787048 0.921295 0.616713 0.383287 0.0185452 0.981455 0.975518 0.0244822
8
0.0 1.0 0.0 1.0 0.0 1.0 1.0 0.0
8
0.0 1.0 1.0 0.0 0.0 1.0 1.0 0.0
8
0.0 1.0 0.0 1.0 0.0 1.0 1.0 0.0
8
0.99942 0.000579792 0.180814 0.819186 0.466166 0.533834 0.306993 0.693007
8
0.337442 0.662558 0.353448 0.646552 0.578917 0.421083 0.849233 0.150767
8
1.0 0.0 0.0 1.0 0.0 1.0 1.0 0.0
4
0.86058 0.13942 0.333255 0.666745
8
1.0 0.0 1.0 0.0 0.0 1.0 0.0 1.0
8
1.0 0.0 1.0 0.0 0.0 1.0 1.0 0.0
8
0.0 1.0 0.0 1.0 1.0 0.0 0.0 1.0
8
0.0 1.0 0.0 1.0 1.0 0.0 1.0 0.0
8
0.633488 0.366512 0.0868063 0.913194 0.85471 0.14529 0.29111 0.70889
8
0.955016 0.044984 0.924249 0.0757507 0.460672 0.539328 0.815596 0.184404
8
1.0 0.0 1.0 0.0 0.0 1.0 0.0 1.0
8
0.531478 0.468522 0.105947 0.894053 0.752698 0.247302 0.809793 0.190207
8
1.0 0.0 0.0 1.0 0.0 1.0 0.0 1.0
8
1.0 0.0 0.0 1.0 1.0 0.0 0.0 1.0
8
0.227838 0.772162 0.7417 0.2583 0.899763 0.100237 0.0825481 0.917452
8
1.0 0.0 1.0 0.0 1.0 0.0 0.0 1.0
8
0.214564 0.785436 0.378291 0.621709 0.850634 0.149366 0.697329 0.302671
8
0.0 1.0 1.0 0.0 1.0 0.0 0.0 1.0
8
1.0 0.0 1.0 0.0 0.0 1.0 1.0 0.0
8
1.0 0.0 1.0 0.0 0.0 1.0 0.0 1.0
8
0.42742 0.57258 0.679598 0.320402 0.368248 0.631752 0.327183 0.672817
4
0.401058 0.598942 0.779698 0.220302
8
0.358118 0.641882 0.692884 0.307116 0.65287 0.34713 0.572681 0.427319
8
0.0 1.0 1.0 0.0 0.0 1.0 1.0 0.0
8
1.0 0.0 1.0 0.0 0.0 1.0 0.0 1.0
8
1.0 0.0 0.0 1.0 1.0 0.0 0.0 1.0
8
1.0 0.0 1.0 0.0 0.0 1.0 1.0 0.0
8
0.343213 0.656787 0.767864 0.232136 0.389272 0.610728 0.744272 0.255728
8
0.188982 0.811018 0.102389 0.897611 0.240446 0.759554 0.841852 0.158148
8
0.311621 0.688379 0.345356 0.654644 0.945081 0.0549191 0.72598 0.27402
8
1.0 0.0 1.0 0.0 0.0 1.0 1.0 0.0
8
0.574309 0.425691 0.480214 0.519786 0.784937 0.215063 0.973107 0.0268933
8
0.133354 0.866646 0.986368 0.0136324 0.923511 0.0764894 0.108319 0.891681
8
0.0 1.0 1.0 0.0 1.0 0.0 1.0 0.0
8
0.0 1.0 1.0 0.0 0.0 1.0 1.0 0.0
8
0.973264 0.0267363 0.294542 0.705458 0.3161 0.6839 0.918345 0.0816554
8
0.0 1.0 1.0 0.0 0.0 1.0 0.0 1.0
8
0.0 1.0 1.0 0.0 1.0 0.0 0.0 1.0
8
0.0 1.0 1.0 0.0 1.0 0.0 0.0 1.0